NAME: tsp15_15
COMMENT: 15-tsp problem (Padberg/Rinaldi)
TYPE: TSP
DIMENSION: 15
EDGE_WEIGHT_TYPE : EUC_2D
NODE_COORD_SECTION
1 6 7
2 30 8
3 4 12
4 36 13
5 29 33
6 0 28
7 32 28
8 37 27
9 17 26
10 35 26
11 33 34
12 36 38
13 13 5
14 15 16
15 26 17
